(set-info :Origin "This instance was generated by: BanditFuzz-- an RL fuzzer for SMT solvers" )
(set-info :Author "Joe Scott, Fed Mora, Vijay Ganesh" )
(set-info :Contact "Joe Scott, joseph.scott@uwaterloo.ca")
; solvers/z3.sh
; 	time => 0.0970923900604248
; 	answer => unsat
; solvers/bitwuzla.sh
; 	time => 0.09195804595947266
; 	answer => unsat
; solvers/cvc4.sh
; 	time => 0.0789179801940918
; 	answer => err
(set-logic QF_BV)
(declare-const bool_0 Bool)
(declare-const bool_1 Bool)
(declare-const bool_2 Bool)
(declare-const bool_3 Bool)
(declare-const bool_4 Bool)
(declare-const bv_0 (_ BitVec 32))
(declare-const bv_1 (_ BitVec 32))
(declare-const bv_2 (_ BitVec 32))
(declare-const bv_3 (_ BitVec 32))
(declare-const bv_4 (_ BitVec 32))
(assert (not (bvult (bvxnor bv_2 #x8bc2b753 ) (bvnor bv_3 bv_1))))
(assert (bvslt (bvadd (bvshl bv_2 #x5b550582 ) (bvurem #xfc74be20  #x7c0b16fb )) (bvudiv (bvsub bv_2 bv_3) (bvsub bv_4 bv_1))))
(assert (xor (bvslt (bvsub bv_1 #x5229c1a4 ) (bvnand bv_4 bv_3)) (xor (xor false bool_3) (=> false bool_1))))
(assert (bvugt (bvudiv (bvshl bv_1 bv_2) (bvsrem #x86c3a1e1  #x71c8abee )) (bvnand (bvadd bv_1 #x5a02476f ) (bvmul bv_1 #x1bcdf457 ))))
(assert (and (and (bvslt #x2ad34c77  bv_4) (xor bool_3 bool_2)) (not (=> bool_4 false))))
(check-sat)
(exit)
